optional comment                        
   1.00000000000000     
     3.1309028960161966   -0.0000000027020349    0.0000000000000000
    -1.5654509504152108    2.7114411831491139    0.0000000000000000
     0.0000000000000000    0.0000000000000000   26.0069777948642447
   Mo   S 
     2     4
Direct
  0.3333333333333357  0.6666666666666643  0.1730410850404311
  0.6666666666666643  0.3333333333333357  0.4053293467550461
  0.6666666666666643  0.3333333333333357  0.1131866156111059
  0.6666666666666643  0.3333333333333357  0.2330150022375008
  0.3333333333333357  0.6666666666666643  0.3453554295579764
  0.3333333333333357  0.6666666666666643  0.4651838161843784
 
  0.00000000E+00  0.00000000E+00  0.00000000E+00
  0.00000000E+00  0.00000000E+00  0.00000000E+00
  0.00000000E+00  0.00000000E+00  0.00000000E+00
  0.00000000E+00  0.00000000E+00  0.00000000E+00
  0.00000000E+00  0.00000000E+00  0.00000000E+00
  0.00000000E+00  0.00000000E+00  0.00000000E+00
